c WARNING: for repeatability, setting FPU to use double precision
d VARIABLES            216460       
d CONSTRAINTS          946733       
c ============================[ Problem Statistics ]=============================
c |                                                                             |
c |  Number of variables:        216460                                         |
c |  Number of clauses:          946733                                         |
c |  Parse time:                   0.15 s                                       |
c |                                                                             |
c ============================[ Search Statistics ]==============================
c | Conflicts |          ORIGINAL         |          LEARNT          | Progress |
c |           |    Vars  Clauses Literals |    Limit  Clauses Lit/Cl |          |
c ===============================================================================
c |       100 |  180209   854291  2070141 |   313240      100     33 | 16.747 % |
c |       250 |  180209   854291  2070141 |   344564      250     25 | 16.747 % |
c |       475 |  180209   854291  2070141 |   379020      475     90 | 16.747 % |
c |       812 |  180209   854291  2070141 |   416922      812     87 | 16.747 % |
c |      1318 |  180209   854291  2070141 |   458614     1318    121 | 16.747 % |
c |      2077 |  180209   854291  2070141 |   504476     2077    101 | 16.747 % |
c |      3216 |  180209   854291  2070141 |   554923     3216    144 | 16.747 % |
c |      4924 |  180209   854291  2070141 |   610416     4924    143 | 16.747 % |
c |      7486 |  180209   854291  2070141 |   671457     7486    152 | 16.747 % |
c |     11330 |  180209   854291  2070141 |   738603    11330    165 | 16.747 % |
c |     17096 |  180209   854291  2070141 |   812463    17096    172 | 16.747 % |
c |     25745 |  180209   854291  2070141 |   893710    25745    178 | 16.747 % |
c |     38719 |  180209   854291  2070141 |   983081    38719    174 | 16.747 % |
c |     58180 |  180209   854291  2070141 |  1081389    58180    173 | 16.747 % |
c |     87372 |  180209   854291  2070141 |  1189528    87372    168 | 16.747 % |
c |    131161 |  180209   854291  2070141 |  1308481   131161    166 | 16.747 % |
c |    196845 |  180209   854291  2070141 |  1439329   196845    168 | 16.747 % |
c |    295371 |  180209   854291  2070141 |  1583262   295371    196 | 16.747 % |
c |    443160 |  180209   854291  2070141 |  1741588   443160    194 | 16.747 % |
c |    664843 |  180209   854291  2070141 |  1915747   664843    212 | 16.747 % |
c |    997368 |  180209   854291  2070141 |  2107322   997368    215 | 16.747 % |
c ===============================================================================
c restarts              : 2553
c conflicts             : 1309134        (983 /sec)
c decisions             : 4921685        (0.00 % random) (3696 /sec)
c propagations          : 3645692906     (2738044 /sec)
c conflict literals     : 284159284      (26.27 % deleted)
d RESTARTS             2553
d FAILURES             1309134      
d NODES                4921685      
d BACKTRACKS           4921685      
d PROPAGATIONS         3645692906   
d NOGOODSIZE           217.06 
d MEMORY               1606.00 
d TIME                 1331.5 

s SATISFIABLE
